Minimize
 + 12 x6 + 12 x7 + 12 x8 + 12 x9 + 12 x10 + 12 x11 + 12 x12 + 12 x13 + 12 x14 + 12 x15 + 8 x16 + 8 x17 + 8 x18 + 8 x19 + 8 x20 + 8 x21 + 8 x22 + 8 x23 + 8 x24 + 8 x25 + 8 x26 + 8 x27 + 8 x28 + 8 x29 + 8 x30 + 8 x31 + 8 x32 + 8 x33 + 8 x34 + 8 x35 + 8 x36 + 8 x37 + 8 x38 + 8 x39 + 8 x40
Subject To
 + x6 + x7 + x14 + x15 + x16 + x17 + x18 + x19 + x20 >= 1
 + x6 + x7 + x8 + x16 + x17 + x18 + x19 + x20 + x21 >= 1
 + x7 + x8 + x9 + x10 + x20 + x21 + x22 + x23 + x24 + x25 >= 1
 + x8 + x9 + x10 + x11 + x21 + x22 + x23 + x24 + x25 + x26 + x27 >= 1
 + x8 + x9 + x10 + x11 + x12 + x13 + x22 + x23 + x24 + x25 + x26 + x27 + x28 + x29 + x30 >= 1
 + x9 + x10 + x11 + x12 + x13 + x26 + x27 + x28 + x29 + x30 >= 1
 + x10 + x11 + x12 + x13 + x14 + x30 + x31 + x32 >= 1
 + x10 + x11 + x12 + x13 + x14 + x33 + x34 + x35 + x36 + x37 + x38 >= 1
 + x6 + x12 + x13 + x14 + x15 + x33 + x34 + x35 + x36 + x37 + x38 >= 1
 + x6 + x14 + x15 + x16 + x39 + x40 >= 1
 + x6 + x7 + x15 + x16 + x17 + x18 + x19 + x39 + x40 >= 1
 + x6 + x7 + x16 + x17 + x18 + x19 >= 1
 + x6 + x7 + x16 + x17 + x18 + x19 >= 1
 + x6 + x7 + x16 + x17 + x18 + x19 + x20 >= 1
 + x6 + x7 + x8 + x19 + x20 + x21 >= 1
 + x7 + x8 + x9 + x20 + x21 + x22 >= 1
 + x8 + x9 + x10 + x21 + x22 + x23 + x24 + x25 >= 1
 + x8 + x9 + x10 + x22 + x23 + x24 + x25 >= 1
 + x8 + x9 + x10 + x22 + x23 + x24 + x25 >= 1
 + x8 + x9 + x10 + x22 + x23 + x24 + x25 >= 1
 + x9 + x10 + x11 + x26 + x27 >= 1
 + x9 + x10 + x11 + x26 + x27 + x28 + x29 + x30 >= 1
 + x10 + x11 + x27 + x28 + x29 + x30 >= 1
 + x10 + x11 + x27 + x28 + x29 + x30 >= 1
 + x10 + x11 + x12 + x27 + x28 + x29 + x30 + x31 + x32 >= 1
 + x12 + x30 + x31 + x32 >= 1
 + x12 + x30 + x31 + x32 >= 1
 + x13 + x14 + x33 + x34 + x35 >= 1
 + x13 + x14 + x33 + x34 + x35 >= 1
 + x13 + x14 + x33 + x34 + x35 >= 1
 + x13 + x14 + x36 + x37 + x38 >= 1
 + x13 + x14 + x36 + x37 + x38 >= 1
 + x13 + x14 + x36 + x37 + x38 >= 1
 + x15 + x16 + x39 + x40 >= 1
 + x15 + x16 + x39 + x40 = 1
Binary
 x6
 x7
 x8
 x9
 x10
 x11
 x12
 x13
 x14
 x15
 x16
 x17
 x18
 x19
 x20
 x21
 x22
 x23
 x24
 x25
 x26
 x27
 x28
 x29
 x30
 x31
 x32
 x33
 x34
 x35
 x36
 x37
 x38
 x39
 x40
End
